1 1 -2 0
1 -1 -3 0
1 1 4 0
1 1 5 0
1 -1 6 0
1 -1 -7 0
1 -2 8 0
1 2 -3 0
1 -2 4 0
1 -2 -1 0
1 -2 5 0
1 -2 -7 0
1 -9 10 0
1 -9 -11 0
1 -9 -12 0
1 9 -3 0
1 -9 -4 0
1 -9 13 0
1 -9 14 0
1 -9 -15 0
1 -9 -5 0
1 9 7 0
1 12 -11 0
1 -12 16 0
1 -12 -3 0
1 12 -4 0
1 -12 13 0
1 -12 -14 0
1 12 9 0
1 12 -5 0
1 4 -17 0
1 4 -12 0
1 -4 -2 0
1 4 18 0
1 -4 19 0
1 4 20 0
1 -4 -21 0
1 -4 -9 0
1 -4 -1 0
1 4 -7 0
1 -7 -22 0
1 -7 -17 0
1 7 23 0
1 -7 -24 0
1 7 -2 0
1 7 -4 0
1 -7 -19 0
1 7 20 0
1 -7 -21 0
1 7 9 0
1 7 1 0
1 3 -17 0
1 3 25 0
1 -3 -26 0
1 -3 -12 0
1 3 -27 0
1 -3 -19 0
1 3 -28 0
1 -3 -29 0
1 3 9 0
1 -3 -1 0
1 -3 -5 0
1 5 17 0
1 5 -25 0
1 5 26 0
1 5 -12 0
1 5 -2 0
1 5 -3 0
1 5 19 0
1 -5 28 0
1 5 -29 0
1 -5 -9 0
1 -5 1 0
1 -5 30 0
1 -21 -10 0
1 21 11 0
1 21 -24 0
1 21 -4 0
1 -21 -13 0
1 -21 14 0
1 21 -29 0
1 -21 7 0
1 24 -10 0
1 24 -11 0
1 -24 26 0
1 24 4 0
1 -24 13 0
1 24 14 0
1 24 -21 0
1 24 -7 0
1 -20 10 0
1 20 -11 0
1 -20 -23 0
1 -20 31 0
1 -20 32 0
1 -20 4 0
1 -20 13 0
1 -20 -14 0
1 -20 -28 0
1 -20 33 0
1 -20 7 0
1 23 -10 0
1 -23 11 0
1 23 -25 0
1 23 -4 0
1 -23 -13 0
1 23 14 0
1 23 20 0
1 -23 -34 0
1 23 -33 0
1 23 7 0
1 -14 -35 0
1 14 -36 0
1 14 -11 0
1 -14 -23 0
1 14 -24 0
1 -14 -12 0
1 -14 37 0
1 14 -38 0
1 -14 39 0
1 -14 40 0
1 14 20 0
1 14 21 0
1 14 9 0
1 14 -41 0
1 -11 -35 0
1 -11 -42 0
1 11 -23 0
1 11 12 0
1 -11 -37 0
1 -11 38 0
1 -11 -39 0
1 -11 20 0
1 -11 -21 0
1 -11 -9 0
1 11 41 0
1 -13 10 0
1 13 -43 0
1 13 17 0
1 13 23 0
1 -13 24 0
1 -13 12 0
1 13 -44 0
1 13 45 0
1 -13 19 0
1 -13 20 0
1 13 21 0
1 13 -9 0
1 -13 41 0
1 -10 43 0
1 10 46 0
1 10 17 0
1 -10 -23 0
1 -10 24 0
1 -10 -12 0
1 -10 37 0
1 -10 13 0
1 -10 -44 0
1 10 -19 0
1 10 20 0
1 10 9 0
1 10 41 0
1 39 36 0
1 -39 11 0
1 39 -31 0
1 -39 -32 0
1 -39 14 0
1 -39 19 0
1 39 33 0
1 -36 -11 0
1 36 -32 0
1 36 -39 0
1 36 34 0
1 36 33 0
1 -38 35 0
1 -38 11 0
1 -38 -31 0
1 -38 -32 0
1 38 44 0
1 -38 14 0
1 -38 -34 0
1 -38 33 0
1 35 -43 0
1 -35 11 0
1 35 -31 0
1 35 -32 0
1 -35 38 0
1 35 -14 0
1 -35 -34 0
1 -35 33 0
1 33 -35 0
1 33 36 0
1 -33 -23 0
1 33 -32 0
1 -33 47 0
1 -33 38 0
1 33 -39 0
1 33 20 0
1 33 -48 0
1 -33 49 0
1 -32 -35 0
1 32 -36 0
1 -32 -23 0
1 32 -47 0
1 -32 38 0
1 32 39 0
1 -32 20 0
1 32 33 0
1 -32 49 0
1 -34 36 0
1 -34 23 0
1 34 -31 0
1 -34 -47 0
1 34 50 0
1 -34 -37 0
1 34 -38 0
1 -34 39 0
1 -34 -20 0
1 -34 49 0
1 34 -51 0
1 -34 41 0
1 -31 -35 0
1 -31 -36 0
1 -31 23 0
1 -31 -47 0
1 31 -50 0
1 31 -37 0
1 -31 -39 0
1 31 20 0
1 -31 34 0
1 31 49 0
1 31 -51 0
1 31 41 0
1 -6 -52 0
1 -6 -53 0
1 6 8 0
1 6 54 0
1 -6 -55 0
1 6 56 0
1 -8 -52 0
1 -8 -53 0
1 -8 -2 0
1 8 57 0
1 -8 -54 0
1 8 55 0
1 8 -6 0
1 15 52 0
1 15 53 0
1 -15 -58 0
1 15 -59 0
1 -15 -16 0
1 -15 54 0
1 -15 -55 0
1 -15 60 0
1 -15 -61 0
1 -15 9 0
1 -15 62 0
1 16 52 0
1 -16 -53 0
1 16 58 0
1 16 59 0
1 16 -12 0
1 -16 54 0
1 16 -55 0
1 16 60 0
1 -16 15 0
1 53 63 0
1 53 25 0
1 -53 -26 0
1 53 16 0
1 -53 8 0
1 53 -55 0
1 -53 64 0
1 53 28 0
1 53 -29 0
1 53 -15 0
1 53 -6 0
1 -55 -53 0
1 55 -63 0
1 55 -25 0
1 55 26 0
1 55 -16 0
1 55 8 0
1 -55 65 0
1 -55 64 0
1 -55 28 0
1 -55 -29 0
1 55 -15 0
1 55 -6 0
1 52 -66 0
1 52 63 0
1 52 -67 0
1 -52 16 0
1 52 8 0
1 52 54 0
1 52 68 0
1 -52 -69 0
1 -52 15 0
1 -52 -6 0
1 54 52 0
1 54 -63 0
1 -54 -70 0
1 54 67 0
1 -54 16 0
1 54 8 0
1 -54 -71 0
1 54 -68 0
1 -54 69 0
1 54 -15 0
1 54 -6 0
1 -29 -53 0
1 29 -58 0
1 -29 26 0
1 -29 59 0
1 -29 -3 0
1 29 61 0
1 -29 21 0
1 29 69 0
1 -29 5 0
1 -26 -53 0
1 26 -58 0
1 26 -24 0
1 26 59 0
1 26 67 0
1 26 3 0
1 26 55 0
1 26 -60 0
1 26 29 0
1 26 5 0
1 28 53 0
1 28 25 0
1 28 58 0
1 28 59 0
1 28 72 0
1 -28 -73 0
1 -28 -3 0
1 -28 55 0
1 28 60 0
1 28 -20 0
1 -28 61 0
1 -28 -68 0
1 28 74 0
1 -28 75 0
1 -28 -5 0
1 25 -61 0
1 -25 -53 0
1 -25 -58 0
1 -25 -70 0
1 -25 59 0
1 -25 -72 0
1 -25 -73 0
1 -25 3 0
1 25 -55 0
1 -25 -60 0
1 -25 28 0
1 -25 -74 0
1 -25 -75 0
1 25 5 0
1 -59 -76 0
1 59 61 0
1 -59 17 0
1 -59 25 0
1 59 -26 0
1 59 77 0
1 -59 -16 0
1 -59 -78 0
1 -59 -44 0
1 -59 28 0
1 -59 29 0
1 61 -76 0
1 -61 43 0
1 -61 17 0
1 -61 25 0
1 -61 59 0
1 -61 -16 0
1 61 78 0
1 -61 44 0
1 -61 -19 0
1 -61 -28 0
1 61 79 0
1 -61 15 0
1 58 76 0
1 58 -80 0
1 58 -25 0
1 -58 -81 0
1 58 26 0
1 -58 16 0
1 -58 78 0
1 -58 82 0
1 58 -64 0
1 58 -28 0
1 58 -29 0
1 58 -15 0
1 60 76 0
1 -60 80 0
1 60 -63 0
1 60 -25 0
1 -60 -58 0
1 60 26 0
1 -60 16 0
1 60 78 0
1 -60 64 0
1 -60 28 0
1 60 -83 0
1 60 -29 0
1 -60 15 0
1 19 10 0
1 -19 17 0
1 -19 -72 0
1 -19 73 0
1 -19 -3 0
1 19 -4 0
1 19 -13 0
1 -19 39 0
1 -19 61 0
1 19 74 0
1 -19 75 0
1 -19 5 0
1 -19 7 0
1 -17 10 0
1 -17 -36 0
1 -17 63 0
1 -17 -59 0
1 -17 -72 0
1 17 73 0
1 -17 3 0
1 17 -4 0
1 -17 13 0
1 -17 -19 0
1 17 61 0
1 17 74 0
1 -17 -75 0
1 17 -5 0
1 44 22 0
1 -44 10 0
1 -44 43 0
1 44 72 0
1 44 -73 0
1 -44 -27 0
1 -44 18 0
1 44 -13 0
1 44 38 0
1 -44 82 0
1 44 61 0
1 -44 74 0
1 44 75 0
1 44 30 0
1 -43 22 0
1 43 -35 0
1 -43 -10 0
1 -43 -80 0
1 -43 -59 0
1 43 72 0
1 -43 -73 0
1 -43 -27 0
1 43 -18 0
1 -43 -13 0
1 43 44 0
1 43 61 0
1 -43 74 0
1 43 -75 0
1 -43 30 0
1 73 43 0
1 73 -17 0
1 73 25 0
1 73 84 0
1 73 50 0
1 -73 85 0
1 73 37 0
1 73 44 0
1 73 28 0
1 73 75 0
1 73 -86 0
1 73 51 0
1 -73 -41 0
1 -75 -43 0
1 -75 -17 0
1 -75 25 0
1 -75 -73 0
1 -75 -84 0
1 -75 -50 0
1 75 37 0
1 75 87 0
1 -75 44 0
1 75 -28 0
1 75 86 0
1 -75 51 0
1 75 -41 0
1 -72 76 0
1 72 43 0
1 72 17 0
1 72 25 0
1 -72 88 0
1 -72 84 0
1 72 89 0
1 -72 -78 0
1 72 -44 0
1 72 19 0
1 72 -28 0
1 -72 74 0
1 72 -86 0
1 72 90 0
1 74 76 0
1 -74 -43 0
1 74 -17 0
1 -74 25 0
1 74 -72 0
1 74 -84 0
1 74 -89 0
1 -74 -78 0
1 74 44 0
1 74 -19 0
1 -74 -91 0
1 -74 86 0
1 74 90 0
1 -37 -22 0
1 37 10 0
1 -37 31 0
1 -37 -73 0
1 -37 27 0
1 37 -78 0
1 -37 -13 0
1 -37 -18 0
1 37 -14 0
1 37 -34 0
1 -37 -75 0
1 37 -30 0
1 37 41 0
1 -41 -76 0
1 41 10 0
1 -41 -22 0
1 -41 -11 0
1 41 -31 0
1 -41 -73 0
1 -41 -27 0
1 41 -18 0
1 41 -13 0
1 -41 14 0
1 -41 -34 0
1 41 75 0
1 41 30 0
1 -50 22 0
1 50 -46 0
1 50 42 0
1 50 31 0
1 -50 -73 0
1 -50 -27 0
1 -50 -18 0
1 -50 -45 0
1 -50 40 0
1 50 75 0
1 50 -51 0
1 -50 30 0
1 51 22 0
1 51 46 0
1 51 42 0
1 51 31 0
1 51 -73 0
1 -51 50 0
1 -51 18 0
1 51 45 0
1 -51 -40 0
1 51 -34 0
1 -51 -30 0
1 51 75 0
1 51 -90 0
1 -18 -22 0
1 -18 -43 0
1 18 92 0
1 -18 -93 0
1 -18 47 0
1 18 50 0
1 -18 -37 0
1 -18 -4 0
1 18 94 0
1 -18 44 0
1 -18 49 0
1 18 51 0
1 18 41 0
1 22 95 0
1 22 43 0
1 22 92 0
1 -22 93 0
1 22 47 0
1 22 50 0
1 -22 -37 0
1 -22 18 0
1 22 -44 0
1 -22 -7 0
1 22 -96 0
1 -22 -97 0
1 22 49 0
1 -22 51 0
1 22 41 0
1 -27 43 0
1 -27 -92 0
1 -27 -98 0
1 27 84 0
1 27 50 0
1 -27 -3 0
1 27 37 0
1 27 99 0
1 27 -44 0
1 27 -96 0
1 27 100 0
1 27 -86 0
1 27 -51 0
1 -27 -30 0
1 -27 -41 0
1 -30 43 0
1 30 92 0
1 30 -98 0
1 30 -84 0
1 -30 -50 0
1 30 -27 0
1 -30 44 0
1 -30 96 0
1 30 100 0
1 -30 -86 0
1 -30 -101 0
1 30 41 0
1 47 22 0
1 -47 46 0
1 -47 -31 0
1 -47 -42 0
1 -47 -32 0
1 47 -84 0
1 47 -45 0
1 -47 -34 0
1 -47 -33 0
1 -47 49 0
1 49 22 0
1 49 -46 0
1 49 31 0
1 49 -32 0
1 49 47 0
1 49 -18 0
1 -49 -45 0
1 49 40 0
1 49 -34 0
1 49 -33 0
1 -49 86 0
1 -93 22 0
1 -93 42 0
1 93 97 0
1 93 102 0
1 -93 -98 0
1 -93 -18 0
1 93 40 0
1 93 -103 0
1 -93 48 0
1 -97 22 0
1 -97 -46 0
1 97 42 0
1 -97 104 0
1 97 -102 0
1 -97 -93 0
1 97 -45 0
1 -97 40 0
1 97 103 0
1 -97 -48 0
1 97 100 0
1 40 105 0
1 -40 -42 0
1 -40 -106 0
1 -40 -107 0
1 -40 -93 0
1 -40 -47 0
1 40 -50 0
1 40 108 0
1 40 14 0
1 40 109 0
1 -40 -110 0
1 -40 111 0
1 -40 -97 0
1 -40 49 0
1 40 51 0
1 42 -11 0
1 -42 105 0
1 -42 112 0
1 42 -106 0
1 -42 -107 0
1 -42 -93 0
1 42 -47 0
1 -42 -50 0
1 -42 108 0
1 -42 -109 0
1 42 -40 0
1 42 111 0
1 42 -97 0
1 -42 -49 0
1 -42 -51 0
1 -45 46 0
1 45 105 0
1 45 -113 0
1 -45 -92 0
1 -45 93 0
1 45 -47 0
1 -45 -50 0
1 -45 -13 0
1 -45 -108 0
1 45 -114 0
1 45 115 0
1 -45 96 0
1 45 -97 0
1 -45 49 0
1 45 51 0
1 46 -10 0
1 -46 116 0
1 46 -113 0
1 -46 -92 0
1 46 -93 0
1 46 -47 0
1 -46 50 0
1 46 -108 0
1 46 -45 0
1 -46 115 0
1 -46 96 0
1 46 97 0
1 -46 49 0
1 46 51 0
1 107 42 0
1 -107 104 0
1 107 -102 0
1 -107 92 0
1 -107 -103 0
1 107 -40 0
1 -107 -111 0
1 -107 -48 0
1 111 42 0
1 -111 -104 0
1 111 -107 0
1 111 102 0
1 -111 40 0
1 -111 -103 0
1 -111 -96 0
1 -106 42 0
1 -106 104 0
1 -106 113 0
1 -106 102 0
1 -106 -109 0
1 -106 -40 0
1 106 -103 0
1 106 -48 0
1 109 -42 0
1 109 106 0
1 109 -104 0
1 109 102 0
1 -109 -40 0
1 109 -115 0
1 109 -103 0
1 109 -48 0
1 48 -117 0
1 -48 -106 0
1 48 107 0
1 48 -93 0
1 -48 -118 0
1 48 -109 0
1 48 111 0
1 -48 -33 0
1 -48 -119 0
1 -102 -106 0
1 102 -32 0
1 102 -120 0
1 102 -93 0
1 102 -118 0
1 -102 109 0
1 -102 -97 0
1 102 48 0
1 103 117 0
1 -103 -121 0
1 -103 105 0
1 103 106 0
1 103 107 0
1 -103 -93 0
1 103 118 0
1 -103 -122 0
1 103 108 0
1 103 109 0
1 103 34 0
1 103 111 0
1 103 123 0
1 -103 97 0
1 -104 -117 0
1 104 121 0
1 104 105 0
1 104 -106 0
1 -104 124 0
1 104 -107 0
1 -104 -93 0
1 104 118 0
1 -104 -122 0
1 104 -103 0
1 -104 108 0
1 104 -109 0
1 -104 111 0
1 104 97 0
1 56 125 0
1 56 57 0
1 56 126 0
1 -56 -127 0
1 56 6 0
1 -57 125 0
1 -57 -128 0
1 -57 8 0
1 57 126 0
1 -57 127 0
1 57 -56 0
1 62 125 0
1 62 -128 0
1 62 129 0
1 62 130 0
1 -62 -126 0
1 -62 127 0
1 62 -131 0
1 62 15 0
1 62 -132 0
1 130 125 0
1 130 128 0
1 -130 129 0
1 130 16 0
1 -130 133 0
1 130 -126 0
1 130 132 0
1 -130 -127 0
1 -130 -131 0
1 130 -62 0
1 127 70 0
1 -127 -128 0
1 -127 67 0
1 127 -130 0
1 127 57 0
1 -127 -134 0
1 127 69 0
1 127 62 0
1 127 56 0
1 -128 127 0
1 128 -70 0
1 128 135 0
1 128 67 0
1 128 -130 0
1 128 -57 0
1 128 -68 0
1 -128 -62 0
1 -128 -56 0
1 126 -136 0
1 -126 -125 0
1 -126 -130 0
1 126 -62 0
1 126 -56 0
1 125 -137 0
1 -125 130 0
1 -125 -57 0
1 -125 -126 0
1 125 62 0
1 -125 56 0
1 -69 -52 0
1 -69 -128 0
1 69 -67 0
1 69 129 0
1 69 133 0
1 69 54 0
1 69 -127 0
1 -69 -29 0
1 -69 131 0
1 69 -132 0
1 -67 52 0
1 -67 -128 0
1 67 -26 0
1 -67 -129 0
1 67 -133 0
1 67 -131 0
1 -67 127 0
1 67 -69 0
1 67 -132 0
1 -68 -138 0
1 -68 52 0
1 68 70 0
1 -68 128 0
1 68 -129 0
1 68 133 0
1 68 139 0
1 68 140 0
1 -68 54 0
1 -68 -28 0
1 -68 -127 0
1 -68 131 0
1 -68 -132 0
1 68 -141 0
1 -70 -138 0
1 70 52 0
1 -70 -127 0
1 70 -25 0
1 70 128 0
1 70 -129 0
1 70 -139 0
1 70 140 0
1 -70 -54 0
1 70 68 0
1 -70 132 0
1 70 -141 0
1 -132 142 0
1 132 80 0
1 -132 -63 0
1 -132 -70 0
1 -132 67 0
1 132 130 0
1 132 133 0
1 132 143 0
1 -132 -82 0
1 -132 64 0
1 -132 -68 0
1 -132 69 0
1 132 62 0
1 132 -144 0
1 133 -142 0
1 -133 -80 0
1 -133 -63 0
1 -133 70 0
1 133 67 0
1 -133 -130 0
1 133 145 0
1 -133 143 0
1 -133 -82 0
1 133 -64 0
1 133 -132 0
1 133 68 0
1 -133 69 0
1 -133 -62 0
1 -131 142 0
1 -131 67 0
1 -131 -129 0
1 -131 -130 0
1 -131 -143 0
1 -131 -68 0
1 131 69 0
1 131 -146 0
1 131 -62 0
1 129 142 0
1 -129 67 0
1 -129 147 0
1 129 -130 0
1 -129 -131 0
1 -129 -143 0
1 -129 69 0
1 129 62 0
1 64 -138 0
1 -64 52 0
1 -64 -53 0
1 -64 63 0
1 64 -139 0
1 -64 -140 0
1 -64 -54 0
1 64 60 0
1 -64 19 0
1 -64 -132 0
1 -64 -141 0
1 63 138 0
1 63 -52 0
1 63 -53 0
1 63 58 0
1 63 133 0
1 -63 -139 0
1 63 -54 0
1 63 -55 0
1 -63 -60 0
1 -63 -64 0
1 -63 -132 0
1 63 -141 0
1 -82 80 0
1 -82 66 0
1 82 148 0
1 82 58 0
1 82 133 0
1 82 -139 0
1 82 -140 0
1 82 -71 0
1 82 44 0
1 -82 -65 0
1 82 60 0
1 -82 132 0
1 -80 -138 0
1 -80 43 0
1 -80 66 0
1 80 148 0
1 -80 -133 0
1 -80 140 0
1 80 60 0
1 80 -65 0
1 -80 132 0
1 138 -76 0
1 138 149 0
1 138 -80 0
1 -138 -63 0
1 138 -70 0
1 138 150 0
1 138 -89 0
1 -138 140 0
1 138 78 0
1 -138 -82 0
1 -138 -68 0
1 -138 151 0
1 138 -90 0
1 -140 -76 0
1 140 -63 0
1 -140 -70 0
1 -140 -150 0
1 140 -89 0
1 -140 -152 0
1 -140 78 0
1 140 82 0
1 140 -64 0
1 140 -68 0
1 140 151 0
1 -140 90 0
1 141 142 0
1 -141 -80 0
1 -141 -63 0
1 141 -153 0
1 -141 70 0
1 -141 -139 0
1 -141 150 0
1 -141 -154 0
1 141 143 0
1 -141 -82 0
1 141 -64 0
1 -141 68 0
1 -141 151 0
1 -141 155 0
1 139 142 0
1 -139 -80 0
1 139 63 0
1 -139 -70 0
1 139 150 0
1 -139 -156 0
1 -139 -154 0
1 139 -143 0
1 -139 82 0
1 -139 -64 0
1 -139 151 0
1 -139 141 0
1 -139 155 0
1 78 -76 0
1 -78 -138 0
1 78 -66 0
1 78 148 0
1 78 -58 0
1 78 59 0
1 -78 -72 0
1 78 140 0
1 -78 143 0
1 78 71 0
1 -78 -60 0
1 -78 -61 0
1 -78 -74 0
1 -76 138 0
1 -76 142 0
1 -76 -66 0
1 -76 -148 0
1 -76 58 0
1 76 -59 0
1 -76 -72 0
1 -76 140 0
1 -76 71 0
1 76 65 0
1 76 60 0
1 -76 61 0
1 -76 -74 0
1 -89 -138 0
1 89 66 0
1 -89 148 0
1 -89 -81 0
1 89 -77 0
1 -89 -72 0
1 -89 -50 0
1 89 140 0
1 -89 71 0
1 89 65 0
1 89 83 0
1 -89 -79 0
1 -89 -74 0
1 -89 90 0
1 90 -148 0
1 90 81 0
1 90 77 0
1 -90 -72 0
1 -90 -89 0
1 -90 140 0
1 -90 -71 0
1 90 -65 0
1 -90 83 0
1 -90 -79 0
1 -90 74 0
1 -90 51 0
1 90 -155 0
1 -148 -76 0
1 -148 -53 0
1 -148 157 0
1 148 -158 0
1 148 -98 0
1 148 -84 0
1 -148 -89 0
1 148 -82 0
1 148 -65 0
1 148 -159 0
1 148 -100 0
1 -148 -86 0
1 -148 90 0
1 -65 -80 0
1 -65 -148 0
1 65 -158 0
1 65 -98 0
1 65 84 0
1 65 89 0
1 -65 78 0
1 -65 55 0
1 -65 -82 0
1 65 -160 0
1 -65 159 0
1 -65 -100 0
1 -65 86 0
1 65 -90 0
1 66 76 0
1 -66 -52 0
1 66 -161 0
1 66 -158 0
1 -66 162 0
1 -66 150 0
1 66 -89 0
1 66 -78 0
1 -66 71 0
1 66 82 0
1 -66 -159 0
1 -66 -163 0
1 66 90 0
1 71 80 0
1 -71 66 0
1 -71 158 0
1 71 150 0
1 -71 89 0
1 -71 -78 0
1 -71 54 0
1 71 164 0
1 71 82 0
1 -71 159 0
1 71 163 0
1 -71 151 0
1 84 -148 0
1 -84 77 0
1 -84 -72 0
1 -84 47 0
1 -84 -150 0
1 84 -27 0
1 -84 -65 0
1 84 -83 0
1 84 79 0
1 84 -74 0
1 84 75 0
1 -84 -86 0
1 -84 -30 0
1 -86 -148 0
1 86 81 0
1 -86 77 0
1 -86 72 0
1 -86 -75 0
1 86 73 0
1 -86 65 0
1 86 -83 0
1 86 79 0
1 86 -74 0
1 -86 -49 0
1 -86 -151 0
1 -86 30 0
1 -98 148 0
1 98 91 0
1 98 81 0
1 -98 -77 0
1 -98 -93 0
1 -98 -88 0
1 -98 162 0
1 98 -85 0
1 -98 -27 0
1 98 -83 0
1 98 -79 0
1 98 -100 0
1 98 30 0
1 -100 -148 0
1 100 81 0
1 -100 77 0
1 -100 -98 0
1 100 88 0
1 100 85 0
1 100 -65 0
1 100 -83 0
1 -100 79 0
1 100 97 0
1 -100 -163 0
1 100 -87 0
1 100 -30 0
1 77 79 0
1 77 165 0
1 77 59 0
1 77 92 0
1 -77 166 0
1 77 -98 0
1 -77 84 0
1 -77 -89 0
1 77 167 0
1 77 115 0
1 77 100 0
1 77 -86 0
1 -77 90 0
1 79 -165 0
1 79 113 0
1 -79 -77 0
1 79 -84 0
1 79 89 0
1 -79 167 0
1 79 -96 0
1 -79 168 0
1 -79 100 0
1 -79 86 0
1 79 -90 0
1 81 -58 0
1 -81 169 0
1 81 170 0
1 81 158 0
1 -81 98 0
1 81 -84 0
1 81 -89 0
1 -81 -167 0
1 -81 83 0
1 -81 171 0
1 81 159 0
1 -81 -100 0
1 81 -86 0
1 -81 90 0
1 -83 165 0
1 83 -172 0
1 -83 81 0
1 83 -169 0
1 83 -158 0
1 83 98 0
1 83 84 0
1 -83 89 0
1 -83 -167 0
1 83 60 0
1 -83 171 0
1 -83 -159 0
1 -83 100 0
1 -83 -86 0
1 83 -90 0
1 -92 -22 0
1 92 -46 0
1 -92 -79 0
1 -92 -107 0
1 92 -77 0
1 92 -158 0
1 92 -85 0
1 92 27 0
1 -92 -45 0
1 92 96 0
1 -92 87 0
1 -92 -30 0
1 -96 -22 0
1 -96 -46 0
1 96 -92 0
1 -96 77 0
1 96 88 0
1 96 -85 0
1 96 27 0
1 -96 -18 0
1 96 -45 0
1 -96 111 0
1 96 79 0
1 96 91 0
1 96 -87 0
1 -96 30 0
1 113 95 0
1 -113 46 0
1 113 -106 0
1 113 169 0
1 -113 77 0
1 113 -88 0
1 -113 -85 0
1 -113 -99 0
1 -113 -94 0
1 -113 -45 0
1 113 -115 0
1 -113 -79 0
1 113 91 0
1 113 -87 0
1 113 101 0
1 -115 -95 0
1 -115 46 0
1 115 113 0
1 -115 77 0
1 115 -88 0
1 115 85 0
1 -115 99 0
1 115 -45 0
1 -115 -109 0
1 -115 -171 0
1 115 -79 0
1 -115 91 0
1 -115 -87 0
1 115 -101 0
1 85 -173 0
1 85 -121 0
1 -85 -105 0
1 -85 -113 0
1 -85 92 0
1 -85 98 0
1 85 -73 0
1 85 174 0
1 -85 175 0
1 85 122 0
1 -85 -108 0
1 -85 115 0
1 -85 100 0
1 85 -87 0
1 -87 121 0
1 -87 -113 0
1 -87 92 0
1 -87 98 0
1 87 85 0
1 -87 175 0
1 87 -122 0
1 -87 -108 0
1 -87 115 0
1 -87 -96 0
1 -87 -100 0
1 -87 -75 0
1 -87 176 0
1 88 173 0
1 88 177 0
1 -88 -165 0
1 88 113 0
1 -88 -91 0
1 -88 92 0
1 88 72 0
1 -88 98 0
1 88 178 0
1 -88 175 0
1 -88 -179 0
1 -88 167 0
1 -88 115 0
1 88 100 0
1 -91 173 0
1 -91 177 0
1 91 -165 0
1 -91 113 0
1 91 -92 0
1 -91 98 0
1 -91 -88 0
1 -91 175 0
1 91 -179 0
1 91 96 0
1 -91 74 0
1 -91 -100 0
1 -91 -180 0
1 105 46 0
1 -105 42 0
1 105 165 0
1 -105 -104 0
1 105 85 0
1 -105 -99 0
1 105 108 0
1 -105 45 0
1 -105 103 0
1 -105 -87 0
1 -105 -101 0
1 -108 -95 0
1 108 46 0
1 108 -42 0
1 108 104 0
1 108 85 0
1 108 94 0
1 108 -45 0
1 -108 167 0
1 -108 40 0
1 -108 -103 0
1 -108 -87 0
1 -108 -101 0
1 121 177 0
1 121 -116 0
1 -121 112 0
1 -121 -104 0
1 -121 -85 0
1 -121 122 0
1 -121 94 0
1 121 -114 0
1 -121 110 0
1 121 -103 0
1 121 -87 0
1 -121 -101 0
1 -122 95 0
1 -122 121 0
1 -122 116 0
1 -122 -112 0
1 122 85 0
1 -122 -99 0
1 122 -179 0
1 122 94 0
1 122 -114 0
1 122 110 0
1 122 -103 0
1 -122 -87 0
1 -122 101 0
1 94 117 0
1 -94 -95 0
1 -94 121 0
1 94 -105 0
1 -94 113 0
1 94 181 0
1 -94 -182 0
1 94 122 0
1 -94 18 0
1 -94 115 0
1 -94 -183 0
1 94 184 0
1 -95 117 0
1 95 22 0
1 -95 -121 0
1 95 105 0
1 -95 -113 0
1 -95 181 0
1 -95 182 0
1 95 118 0
1 95 -122 0
1 95 94 0
1 95 -108 0
1 95 115 0
1 -95 -183 0
1 95 -184 0
1 -99 -173 0
1 99 121 0
1 99 105 0
1 -99 -113 0
1 -99 -181 0
1 99 -27 0
1 -99 -175 0
1 -99 -122 0
1 99 -108 0
1 -99 -183 0
1 -101 -173 0
1 101 -121 0
1 -101 105 0
1 -101 113 0
1 101 -185 0
1 -101 -175 0
1 101 -99 0
1 101 -115 0
1 -101 -183 0
1 101 30 0
1 101 -186 0
1 -117 173 0
1 -117 -95 0
1 117 116 0
1 -117 112 0
1 117 104 0
1 117 -102 0
1 -117 118 0
1 -117 -94 0
1 -117 -114 0
1 117 -110 0
1 -117 103 0
1 117 -48 0
1 -118 -117 0
1 118 95 0
1 118 -116 0
1 118 112 0
1 -118 104 0
1 118 102 0
1 118 175 0
1 118 94 0
1 -118 -114 0
1 118 110 0
1 -118 103 0
1 -118 -48 0
1 -184 -95 0
1 -184 -116 0
1 -184 -112 0
1 -184 -124 0
1 184 -120 0
1 184 182 0
1 184 94 0
1 -184 114 0
1 -184 110 0
1 184 -123 0
1 184 119 0
1 -184 186 0
1 182 95 0
1 182 116 0
1 182 -112 0
1 -182 -124 0
1 -182 -120 0
1 -182 -185 0
1 -182 -94 0
1 182 -114 0
1 182 110 0
1 -182 123 0
1 -182 -119 0
1 -182 -184 0
1 -110 -117 0
1 -110 -121 0
1 110 112 0
1 -110 -187 0
1 110 188 0
1 110 -182 0
1 110 -118 0
1 -110 40 0
1 110 189 0
1 -110 -190 0
1 -110 184 0
1 112 117 0
1 112 121 0
1 -112 -42 0
1 -112 187 0
1 112 -188 0
1 112 182 0
1 112 118 0
1 -112 122 0
1 112 110 0
1 112 -189 0
1 112 184 0
1 114 117 0
1 -114 -121 0
1 -114 116 0
1 114 -191 0
1 114 181 0
1 114 -182 0
1 -114 118 0
1 -114 122 0
1 -114 45 0
1 114 -192 0
1 114 183 0
1 114 -184 0
1 -116 117 0
1 116 -121 0
1 -116 -46 0
1 -116 191 0
1 -116 181 0
1 116 -118 0
1 116 122 0
1 116 -114 0
1 -116 -183 0
1 -116 -184 0
1 190 112 0
1 190 124 0
1 -190 120 0
1 190 188 0
1 190 -110 0
1 -190 123 0
1 -190 119 0
1 190 183 0
1 188 112 0
1 -188 120 0
1 -188 181 0
1 -188 -110 0
1 188 123 0
1 -188 119 0
1 189 -112 0
1 189 124 0
1 -189 -120 0
1 189 110 0
1 189 123 0
1 -189 119 0
1 -189 -192 0
1 -187 -119 0
1 -187 -112 0
1 187 -124 0
1 -187 191 0
1 187 -110 0
1 -187 -123 0
1 -187 189 0
1 119 187 0
1 119 -182 0
1 -119 48 0
1 -119 -189 0
1 119 -190 0
1 -119 -184 0
1 120 119 0
1 120 102 0
1 120 -187 0
1 120 188 0
1 -120 -182 0
1 -120 -190 0
1 -120 184 0
1 123 -124 0
1 -123 187 0
1 123 188 0
1 -123 -103 0
1 123 -189 0
1 123 -190 0
1 -123 -184 0
1 -124 -104 0
1 -124 187 0
1 -124 -188 0
1 124 -182 0
1 -124 123 0
1 -124 189 0
1 124 -190 0
1 143 -142 0
1 -143 137 0
1 -143 135 0
1 -143 -129 0
1 -143 -133 0
1 143 139 0
1 -143 -78 0
1 143 136 0
1 -143 -134 0
1 143 -131 0
1 143 132 0
1 143 -141 0
1 -142 -76 0
1 142 -137 0
1 -142 -129 0
1 142 133 0
1 142 139 0
1 -142 -143 0
1 -142 134 0
1 142 131 0
1 142 132 0
1 -142 141 0
1 -154 137 0
1 154 135 0
1 154 147 0
1 154 -145 0
1 154 139 0
1 154 89 0
1 -154 136 0
1 -154 134 0
1 154 -146 0
1 -154 -144 0
1 -154 141 0
1 -154 -155 0
1 -155 -137 0
1 155 -135 0
1 -155 -147 0
1 -155 145 0
1 -155 139 0
1 -155 -154 0
1 155 -136 0
1 155 134 0
1 -155 -146 0
1 155 -144 0
1 -155 -141 0
1 155 -90 0
1 -134 142 0
1 -134 135 0
1 -134 162 0
1 134 150 0
1 134 193 0
1 134 143 0
1 134 -127 0
1 -134 -163 0
1 -134 -151 0
1 -134 -155 0
1 -135 -142 0
1 135 -128 0
1 135 -194 0
1 -135 -162 0
1 135 -154 0
1 -135 143 0
1 -135 -134 0
1 -135 -163 0
1 -135 -151 0
1 135 155 0
1 -136 142 0
1 -136 137 0
1 -136 -154 0
1 136 195 0
1 -136 -155 0
1 -137 142 0
1 -137 125 0
1 137 -154 0
1 -137 143 0
1 -137 -155 0
1 150 -138 0
1 -150 66 0
1 -150 135 0
1 -150 -147 0
1 150 145 0
1 150 84 0
1 -150 -139 0
1 -150 -140 0
1 150 -71 0
1 -150 -134 0
1 -150 -146 0
1 -150 -144 0
1 150 -151 0
1 150 141 0
1 151 141 0
1 151 66 0
1 -151 135 0
1 151 147 0
1 151 145 0
1 151 -139 0
1 151 150 0
1 151 -140 0
1 -151 71 0
1 151 146 0
1 -151 -86 0
1 -151 -144 0
1 -162 -66 0
1 -162 -135 0
1 162 147 0
1 -162 98 0
1 162 145 0
1 -162 156 0
1 -162 152 0
1 -162 71 0
1 162 -146 0
1 -162 -134 0
1 162 163 0
1 162 -144 0
1 162 153 0
1 -163 149 0
1 163 162 0
1 163 145 0
1 -163 156 0
1 163 -71 0
1 -163 134 0
1 163 100 0
1 -163 146 0
1 -163 -144 0
1 -163 153 0
1 144 -196 0
1 -144 -169 0
1 -144 158 0
1 -144 -162 0
1 144 145 0
1 144 -150 0
1 -144 -154 0
1 -144 197 0
1 144 -159 0
1 -144 -163 0
1 144 -132 0
1 144 -151 0
1 -144 198 0
1 -144 155 0
1 -145 196 0
1 145 -169 0
1 -145 -158 0
1 145 -133 0
1 -145 -162 0
1 145 -199 0
1 -145 -150 0
1 145 -154 0
1 -145 -197 0
1 -145 159 0
1 -145 -163 0
1 145 144 0
1 -145 -151 0
1 -145 155 0
1 -146 196 0
1 -146 -162 0
1 146 -150 0
1 146 -131 0
1 146 154 0
1 146 -197 0
1 -146 -163 0
1 -146 200 0
1 146 151 0
1 146 -155 0
1 147 196 0
1 147 -129 0
1 -147 -201 0
1 147 -150 0
1 147 154 0
1 147 146 0
1 147 -197 0
1 -147 163 0
1 147 151 0
1 -147 155 0
1 158 -149 0
1 158 66 0
1 158 -148 0
1 -158 81 0
1 -158 -92 0
1 158 145 0
1 -158 156 0
1 -158 152 0
1 158 65 0
1 -158 -83 0
1 -158 -159 0
1 -158 -144 0
1 -159 -149 0
1 -159 66 0
1 159 -148 0
1 -159 -81 0
1 159 158 0
1 -159 145 0
1 -159 -156 0
1 -159 -152 0
1 159 -71 0
1 -159 65 0
1 -159 96 0
1 159 -144 0
1 -159 -153 0
1 169 -149 0
1 -169 -161 0
1 -169 157 0
1 -169 -81 0
1 -169 -113 0
1 169 145 0
1 -169 156 0
1 169 -152 0
1 169 -160 0
1 -169 -83 0
1 -169 171 0
1 169 -153 0
1 171 -149 0
1 171 161 0
1 -171 157 0
1 -171 81 0
1 171 145 0
1 171 -156 0
1 171 -152 0
1 171 -160 0
1 -171 -83 0
1 171 115 0
1 -171 -144 0
1 171 -153 0
1 -149 138 0
1 149 202 0
1 149 -177 0
1 -149 203 0
1 -149 -169 0
1 149 -162 0
1 -149 -152 0
1 -149 -204 0
1 149 179 0
1 149 -167 0
1 149 171 0
1 149 -159 0
1 -149 -163 0
1 -152 149 0
1 -152 202 0
1 152 -177 0
1 -152 165 0
1 152 169 0
1 -152 158 0
1 152 -162 0
1 152 140 0
1 -152 -204 0
1 -152 -179 0
1 152 205 0
1 -152 167 0
1 -152 159 0
1 -152 163 0
1 153 206 0
1 153 202 0
1 153 207 0
1 153 196 0
1 -153 -158 0
1 153 162 0
1 -153 -156 0
1 -153 204 0
1 -153 -208 0
1 153 -171 0
1 -153 -159 0
1 -153 163 0
1 -153 -141 0
1 -156 202 0
1 -156 -207 0
1 156 -196 0
1 156 169 0
1 -156 -158 0
1 -156 162 0
1 156 -139 0
1 156 -209 0
1 -156 208 0
1 156 171 0
1 156 163 0
1 165 149 0
1 -165 105 0
1 -165 161 0
1 -165 -81 0
1 165 -157 0
1 -165 -77 0
1 -165 88 0
1 165 -152 0
1 -165 164 0
1 -165 -167 0
1 165 160 0
1 -165 -83 0
1 165 91 0
1 167 149 0
1 167 -161 0
1 -167 -165 0
1 167 -157 0
1 -167 81 0
1 -167 -77 0
1 167 88 0
1 -167 -152 0
1 167 -108 0
1 167 164 0
1 167 197 0
1 -167 83 0
1 167 160 0
1 -167 79 0
1 -167 91 0
1 -177 -149 0
1 -177 -121 0
1 -177 207 0
1 177 -161 0
1 177 -157 0
1 177 170 0
1 -177 -166 0
1 177 -88 0
1 -177 179 0
1 177 -164 0
1 177 160 0
1 -177 172 0
1 177 168 0
1 177 -91 0
1 179 149 0
1 179 177 0
1 179 161 0
1 179 -157 0
1 179 170 0
1 179 166 0
1 -179 88 0
1 -179 122 0
1 179 208 0
1 -179 -164 0
1 -179 160 0
1 -179 172 0
1 -179 -168 0
1 -179 91 0
1 -157 173 0
1 -157 177 0
1 -157 -165 0
1 157 148 0
1 157 169 0
1 157 210 0
1 -157 185 0
1 157 175 0
1 -157 167 0
1 157 -160 0
1 -157 -171 0
1 -157 -186 0
1 160 173 0
1 -160 -177 0
1 -160 157 0
1 -160 169 0
1 -160 -210 0
1 160 185 0
1 -160 -175 0
1 160 179 0
1 160 -167 0
1 160 65 0
1 -160 -171 0
1 -160 186 0
1 161 202 0
1 161 -177 0
1 161 66 0
1 161 165 0
1 161 -169 0
1 161 -210 0
1 161 -211 0
1 -161 204 0
1 161 -179 0
1 -161 -164 0
1 161 167 0
1 -161 171 0
1 -164 -212 0
1 -164 202 0
1 164 -177 0
1 -164 165 0
1 164 169 0
1 164 210 0
1 -164 204 0
1 -164 -179 0
1 164 -71 0
1 164 -167 0
1 -173 117 0
1 -173 -202 0
1 173 -157 0
1 -173 -170 0
1 -173 -166 0
1 173 -85 0
1 -173 -175 0
1 173 -99 0
1 -173 -160 0
1 -173 172 0
1 173 -168 0
1 -173 -91 0
1 173 87 0
1 -173 -101 0
1 175 -173 0
1 -175 170 0
1 175 166 0
1 175 88 0
1 -175 85 0
1 -175 118 0
1 -175 99 0
1 175 204 0
1 175 172 0
1 175 -168 0
1 175 -91 0
1 175 -87 0
1 175 -101 0
1 186 -212 0
1 -186 -157 0
1 186 -170 0
1 186 166 0
1 -186 -174 0
1 -186 -99 0
1 186 -160 0
1 -186 172 0
1 -186 168 0
1 186 180 0
1 186 176 0
1 -186 184 0
1 -186 -101 0
1 185 -157 0
1 185 -170 0
1 -185 166 0
1 -185 -186 0
1 185 -178 0
1 185 -182 0
1 -185 -174 0
1 185 -211 0
1 -185 -99 0
1 -185 160 0
1 185 -172 0
1 185 -168 0
1 185 180 0
1 185 -176 0
1 -166 173 0
1 166 -177 0
1 -166 -77 0
1 -166 191 0
1 -166 -181 0
1 166 175 0
1 166 -179 0
1 166 192 0
1 166 183 0
1 166 -186 0
1 168 -173 0
1 -168 -177 0
1 168 -191 0
1 -168 166 0
1 -168 181 0
1 -168 185 0
1 168 175 0
1 168 79 0
1 168 -192 0
1 -168 183 0
1 -168 -186 0
1 -170 173 0
1 170 177 0
1 170 81 0
1 170 213 0
1 170 -210 0
1 -170 -185 0
1 -170 175 0
1 -170 179 0
1 -170 172 0
1 170 214 0
1 170 186 0
1 172 -173 0
1 -172 177 0
1 172 213 0
1 172 -210 0
1 172 185 0
1 -172 -175 0
1 172 179 0
1 -172 83 0
1 -172 -214 0
1 172 -186 0
1 -183 95 0
1 183 -116 0
1 183 166 0
1 -183 181 0
1 -183 -178 0
1 -183 174 0
1 -183 -99 0
1 183 94 0
1 -183 -114 0
1 183 180 0
1 183 190 0
1 183 176 0
1 183 101 0
1 -181 -95 0
1 -181 -116 0
1 -181 166 0
1 181 188 0
1 181 178 0
1 181 210 0
1 -181 174 0
1 -181 99 0
1 181 -94 0
1 -181 -114 0
1 -181 168 0
1 -181 180 0
1 181 183 0
1 -181 -101 0
1 -192 -191 0
1 -192 -166 0
1 192 -178 0
1 -192 174 0
1 -192 -114 0
1 192 168 0
1 -192 -189 0
1 -192 180 0
1 192 -214 0
1 -192 176 0
1 191 116 0
1 -191 187 0
1 191 213 0
1 191 -178 0
1 -191 -180 0
1 191 -174 0
1 -191 -168 0
1 -191 192 0
1 191 176 0
1 174 -191 0
1 174 -181 0
1 174 -185 0
1 -174 -176 0
1 174 192 0
1 174 -183 0
1 174 186 0
1 176 191 0
1 -176 -181 0
1 -176 185 0
1 -176 174 0
1 176 192 0
1 176 87 0
1 176 183 0
1 -176 -186 0
1 178 -191 0
1 178 -88 0
1 178 181 0
1 178 -185 0
1 -178 -180 0
1 -178 -192 0
1 178 183 0
1 178 -186 0
1 -180 191 0
1 180 181 0
1 180 -178 0
1 180 -185 0
1 180 91 0
1 -180 -192 0
1 180 -186 0
1 196 215 0
1 196 -194 0
1 -196 -147 0
1 -196 -145 0
1 196 -156 0
1 -196 197 0
1 196 195 0
1 -196 -193 0
1 -196 -146 0
1 196 -144 0
1 196 153 0
1 -197 -196 0
1 -197 215 0
1 197 194 0
1 -197 -147 0
1 -197 145 0
1 -197 -156 0
1 197 167 0
1 197 -195 0
1 -197 193 0
1 197 146 0
1 -197 144 0
1 -207 215 0
1 -207 194 0
1 207 -201 0
1 207 199 0
1 207 156 0
1 207 -208 0
1 -207 -200 0
1 207 -198 0
1 208 207 0
1 208 -215 0
1 -208 194 0
1 208 201 0
1 -208 -199 0
1 -208 -156 0
1 208 -179 0
1 -208 -195 0
1 208 193 0
1 -208 200 0
1 -208 -198 0
1 -208 -153 0
1 -193 212 0
1 -193 202 0
1 -193 -207 0
1 -193 196 0
1 193 -211 0
1 -193 -204 0
1 193 -208 0
1 193 -197 0
1 193 -134 0
1 -194 212 0
1 194 -202 0
1 -194 -207 0
1 -194 -135 0
1 194 -211 0
1 194 -204 0
1 194 -197 0
1 194 193 0
1 -195 207 0
1 195 196 0
1 -195 215 0
1 -195 208 0
1 195 197 0
1 195 -136 0
1 -215 207 0
1 -215 196 0
1 215 -195 0
1 215 137 0
1 215 208 0
1 -202 -173 0
1 202 -149 0
1 -202 161 0
1 202 -199 0
1 -202 156 0
1 202 -152 0
1 202 -204 0
1 202 164 0
1 202 193 0
1 202 200 0
1 -202 198 0
1 204 149 0
1 204 -202 0
1 204 161 0
1 204 194 0
1 -204 201 0
1 -204 199 0
1 -204 156 0
1 -204 -175 0
1 204 164 0
1 -204 -200 0
1 204 198 0
1 -204 153 0
1 212 206 0
1 -212 203 0
1 -212 161 0
1 -212 201 0
1 -212 199 0
1 -212 -211 0
1 -212 -209 0
1 -212 205 0
1 -212 164 0
1 212 -193 0
1 212 200 0
1 212 -198 0
1 212 186 0
1 211 -212 0
1 211 206 0
1 211 161 0
1 211 -194 0
1 -211 -199 0
1 -211 185 0
1 211 209 0
1 211 205 0
1 -211 -164 0
1 -211 -193 0
1 -211 -200 0
1 211 -198 0
1 -198 212 0
1 -198 202 0
1 198 -207 0
1 -198 213 0
1 -198 210 0
1 198 -199 0
1 198 211 0
1 -198 204 0
1 -198 -208 0
1 -198 214 0
1 -198 144 0
1 -199 212 0
1 -199 -202 0
1 199 207 0
1 -199 -213 0
1 -199 145 0
1 199 211 0
1 199 204 0
1 199 208 0
1 199 -214 0
1 199 198 0
1 -200 212 0
1 -200 -202 0
1 -200 207 0
1 200 -201 0
1 -200 -211 0
1 200 204 0
1 -200 208 0
1 -200 146 0
1 201 -212 0
1 201 207 0
1 201 147 0
1 -201 -211 0
1 -201 204 0
1 201 208 0
1 201 200 0
1 210 -206 0
1 -210 203 0
1 210 161 0
1 -210 -157 0
1 -210 170 0
1 210 181 0
1 -210 209 0
1 210 205 0
1 210 -164 0
1 210 160 0
1 210 -172 0
1 -210 198 0
1 -214 -206 0
1 214 170 0
1 214 213 0
1 214 199 0
1 -214 209 0
1 214 205 0
1 214 172 0
1 214 -192 0
1 214 -198 0
1 213 206 0
1 -213 -203 0
1 213 -170 0
1 213 -191 0
1 213 -199 0
1 213 209 0
1 213 -205 0
1 -213 -172 0
1 213 -198 0
1 -203 -212 0
1 203 -213 0
1 203 -210 0
1 -203 211 0
1 -203 -205 0
1 203 -214 0
1 -205 212 0
1 -205 203 0
1 -205 213 0
1 -205 -210 0
1 205 -211 0
1 205 -152 0
1 -205 -214 0
1 -206 -212 0
1 206 -213 0
1 -206 210 0
1 206 -211 0
1 -206 209 0
1 206 -214 0
1 -206 153 0
1 -209 212 0
1 -209 206 0
1 -209 -213 0
1 209 210 0
1 -209 156 0
1 -209 -211 0
1 209 -214 0
